c 104_4_checker_6cl.cnf
c
c field = 104
c formula set type = 4_checker_6cl
c
p cnf 6 16
198 
200 
202 
204 
-196 
-208 
199 
201 
203 
205 
-197 
-209 
86 
116 
146 
176 
-56 
-236 
87 
117 
147 
177 
-57 
-237 
116 
146 
176 
236 
-86 
-266 
117 
147 
177 
237 
-87 
-267 
146 
176 
236 
266 
-116 
-296 
147 
177 
237 
267 
-117 
-297 
176 
236 
266 
296 
-146 
-326 
177 
237 
267 
297 
-147 
-327 
236 
266 
296 
326 
-176 
-356 
237 
267 
297 
327 
-177 
-357 
78 
110 
142 
174 
-46 
-238 
79 
111 
143 
175 
-47 
-239 
234 
262 
290 
318 
-178 
-346 
235 
263 
291 
319 
-179 
-347 
